; benchmark generated from python API
(set-info :status unknown)
(declare-fun cell_1_1 () Int)
(declare-fun cell_1_3 () Int)
(declare-fun cell_2_4 () Int)
(declare-fun cell_3_8 () Int)
(declare-fun cell_4_1 () Int)
(declare-fun cell_5_9 () Int)
(declare-fun cell_6_6 () Int)
(declare-fun cell_7_2 () Int)
(declare-fun cell_8_5 () Int)
(declare-fun cell_9_7 () Int)
(declare-fun cell_2_1 () Int)
(declare-fun cell_3_1 () Int)
(declare-fun cell_5_1 () Int)
(declare-fun cell_6_1 () Int)
(declare-fun cell_7_1 () Int)
(declare-fun cell_8_1 () Int)
(declare-fun cell_9_1 () Int)
(declare-fun cell_1_2 () Int)
(declare-fun cell_2_2 () Int)
(declare-fun cell_3_2 () Int)
(declare-fun cell_4_2 () Int)
(declare-fun cell_5_2 () Int)
(declare-fun cell_6_2 () Int)
(declare-fun cell_8_2 () Int)
(declare-fun cell_9_2 () Int)
(declare-fun cell_2_3 () Int)
(declare-fun cell_3_3 () Int)
(declare-fun cell_4_3 () Int)
(declare-fun cell_5_3 () Int)
(declare-fun cell_6_3 () Int)
(declare-fun cell_7_3 () Int)
(declare-fun cell_8_3 () Int)
(declare-fun cell_9_3 () Int)
(declare-fun cell_1_4 () Int)
(declare-fun cell_3_4 () Int)
(declare-fun cell_4_4 () Int)
(declare-fun cell_5_4 () Int)
(declare-fun cell_6_4 () Int)
(declare-fun cell_7_4 () Int)
(declare-fun cell_8_4 () Int)
(declare-fun cell_9_4 () Int)
(declare-fun cell_1_5 () Int)
(declare-fun cell_2_5 () Int)
(declare-fun cell_3_5 () Int)
(declare-fun cell_4_5 () Int)
(declare-fun cell_5_5 () Int)
(declare-fun cell_6_5 () Int)
(declare-fun cell_7_5 () Int)
(declare-fun cell_9_5 () Int)
(declare-fun cell_1_6 () Int)
(declare-fun cell_2_6 () Int)
(declare-fun cell_3_6 () Int)
(declare-fun cell_4_6 () Int)
(declare-fun cell_5_6 () Int)
(declare-fun cell_7_6 () Int)
(declare-fun cell_8_6 () Int)
(declare-fun cell_9_6 () Int)
(declare-fun cell_1_7 () Int)
(declare-fun cell_2_7 () Int)
(declare-fun cell_3_7 () Int)
(declare-fun cell_4_7 () Int)
(declare-fun cell_5_7 () Int)
(declare-fun cell_6_7 () Int)
(declare-fun cell_7_7 () Int)
(declare-fun cell_8_7 () Int)
(declare-fun cell_1_8 () Int)
(declare-fun cell_2_8 () Int)
(declare-fun cell_4_8 () Int)
(declare-fun cell_5_8 () Int)
(declare-fun cell_6_8 () Int)
(declare-fun cell_7_8 () Int)
(declare-fun cell_8_8 () Int)
(declare-fun cell_9_8 () Int)
(declare-fun cell_1_9 () Int)
(declare-fun cell_2_9 () Int)
(declare-fun cell_3_9 () Int)
(declare-fun cell_4_9 () Int)
(declare-fun cell_6_9 () Int)
(declare-fun cell_7_9 () Int)
(declare-fun cell_8_9 () Int)
(declare-fun cell_9_9 () Int)
(assert
 (= cell_1_1 2))
(assert
 (= cell_1_3 1))
(assert
 (= cell_2_4 1))
(assert
 (= cell_3_8 1))
(assert
 (= cell_4_1 1))
(assert
 (= cell_5_9 1))
(assert
 (= cell_6_6 1))
(assert
 (= cell_7_2 1))
(assert
 (= cell_8_5 1))
(assert
 (= cell_9_7 1))
(assert
 (let (($x6783 (= cell_1_1 2)))
 (or (= cell_1_1 1) $x6783 (= cell_1_1 3) (= cell_1_1 4) (= cell_1_1 5) (= cell_1_1 6) (= cell_1_1 7) (= cell_1_1 8) (= cell_1_1 9))))
(assert
 (let (($x1181 (= cell_2_1 9)))
 (let (($x2669 (= cell_2_1 8)))
 (let (($x3763 (= cell_2_1 7)))
 (let (($x7433 (= cell_2_1 6)))
 (let (($x5573 (= cell_2_1 5)))
 (let (($x7159 (= cell_2_1 4)))
 (let (($x9318 (= cell_2_1 3)))
 (let (($x6950 (= cell_2_1 2)))
 (let (($x8770 (= cell_2_1 1)))
 (or $x8770 $x6950 $x9318 $x7159 $x5573 $x7433 $x3763 $x2669 $x1181)))))))))))
(assert
 (let (($x7526 (= cell_3_1 9)))
 (let (($x7736 (= cell_3_1 8)))
 (let (($x6195 (= cell_3_1 7)))
 (let (($x8488 (= cell_3_1 6)))
 (let (($x4747 (= cell_3_1 5)))
 (let (($x7333 (= cell_3_1 4)))
 (let (($x4983 (= cell_3_1 3)))
 (let (($x7576 (= cell_3_1 2)))
 (let (($x914 (= cell_3_1 1)))
 (or $x914 $x7576 $x4983 $x7333 $x4747 $x8488 $x6195 $x7736 $x7526)))))))))))
(assert
 (let (($x2292 (= cell_4_1 1)))
 (or $x2292 (= cell_4_1 2) (= cell_4_1 3) (= cell_4_1 4) (= cell_4_1 5) (= cell_4_1 6) (= cell_4_1 7) (= cell_4_1 8) (= cell_4_1 9))))
(assert
 (let (($x2423 (= cell_5_1 9)))
 (let (($x4012 (= cell_5_1 8)))
 (let (($x2125 (= cell_5_1 7)))
 (let (($x2982 (= cell_5_1 6)))
 (let (($x8855 (= cell_5_1 5)))
 (let (($x3411 (= cell_5_1 4)))
 (let (($x9448 (= cell_5_1 3)))
 (let (($x8699 (= cell_5_1 2)))
 (let (($x7228 (= cell_5_1 1)))
 (or $x7228 $x8699 $x9448 $x3411 $x8855 $x2982 $x2125 $x4012 $x2423)))))))))))
(assert
 (let (($x321 (= cell_6_1 9)))
 (let (($x6279 (= cell_6_1 8)))
 (let (($x8860 (= cell_6_1 7)))
 (let (($x4419 (= cell_6_1 6)))
 (let (($x2046 (= cell_6_1 5)))
 (let (($x4549 (= cell_6_1 4)))
 (let (($x3157 (= cell_6_1 3)))
 (let (($x3088 (= cell_6_1 2)))
 (let (($x5955 (= cell_6_1 1)))
 (or $x5955 $x3088 $x3157 $x4549 $x2046 $x4419 $x8860 $x6279 $x321)))))))))))
(assert
 (let (($x913 (= cell_7_1 9)))
 (let (($x9971 (= cell_7_1 8)))
 (let (($x6598 (= cell_7_1 7)))
 (let (($x10165 (= cell_7_1 6)))
 (let (($x1439 (= cell_7_1 5)))
 (let (($x4607 (= cell_7_1 4)))
 (let (($x2772 (= cell_7_1 3)))
 (let (($x3562 (= cell_7_1 2)))
 (let (($x261 (= cell_7_1 1)))
 (or $x261 $x3562 $x2772 $x4607 $x1439 $x10165 $x6598 $x9971 $x913)))))))))))
(assert
 (let (($x5780 (= cell_8_1 9)))
 (let (($x10149 (= cell_8_1 8)))
 (let (($x4115 (= cell_8_1 7)))
 (let (($x7161 (= cell_8_1 6)))
 (let (($x6424 (= cell_8_1 5)))
 (let (($x2580 (= cell_8_1 4)))
 (let (($x3184 (= cell_8_1 3)))
 (let (($x2602 (= cell_8_1 2)))
 (let (($x3109 (= cell_8_1 1)))
 (or $x3109 $x2602 $x3184 $x2580 $x6424 $x7161 $x4115 $x10149 $x5780)))))))))))
(assert
 (let (($x7410 (= cell_9_1 9)))
 (let (($x9134 (= cell_9_1 8)))
 (let (($x6505 (= cell_9_1 7)))
 (let (($x7233 (= cell_9_1 6)))
 (let (($x3151 (= cell_9_1 5)))
 (let (($x1880 (= cell_9_1 4)))
 (let (($x87 (= cell_9_1 3)))
 (let (($x6042 (= cell_9_1 2)))
 (let (($x4487 (= cell_9_1 1)))
 (or $x4487 $x6042 $x87 $x1880 $x3151 $x7233 $x6505 $x9134 $x7410)))))))))))
(assert
 (let (($x3376 (= cell_1_2 9)))
 (let (($x3703 (= cell_1_2 8)))
 (let (($x9260 (= cell_1_2 7)))
 (let (($x971 (= cell_1_2 6)))
 (let (($x6623 (= cell_1_2 5)))
 (let (($x5803 (= cell_1_2 4)))
 (let (($x3779 (= cell_1_2 3)))
 (let (($x9445 (= cell_1_2 2)))
 (let (($x6837 (= cell_1_2 1)))
 (or $x6837 $x9445 $x3779 $x5803 $x6623 $x971 $x9260 $x3703 $x3376)))))))))))
(assert
 (let (($x3914 (= cell_2_2 9)))
 (let (($x10189 (= cell_2_2 8)))
 (let (($x6493 (= cell_2_2 7)))
 (let (($x1186 (= cell_2_2 6)))
 (let (($x2980 (= cell_2_2 5)))
 (let (($x299 (= cell_2_2 4)))
 (let (($x2154 (= cell_2_2 3)))
 (let (($x3753 (= cell_2_2 2)))
 (let (($x3595 (= cell_2_2 1)))
 (or $x3595 $x3753 $x2154 $x299 $x2980 $x1186 $x6493 $x10189 $x3914)))))))))))
(assert
 (let (($x5747 (= cell_3_2 9)))
 (let (($x5153 (= cell_3_2 8)))
 (let (($x6522 (= cell_3_2 7)))
 (let (($x722 (= cell_3_2 6)))
 (let (($x2958 (= cell_3_2 5)))
 (let (($x315 (= cell_3_2 4)))
 (let (($x5842 (= cell_3_2 3)))
 (let (($x5922 (= cell_3_2 2)))
 (let (($x5999 (= cell_3_2 1)))
 (or $x5999 $x5922 $x5842 $x315 $x2958 $x722 $x6522 $x5153 $x5747)))))))))))
(assert
 (let (($x6344 (= cell_4_2 9)))
 (let (($x8881 (= cell_4_2 8)))
 (let (($x8291 (= cell_4_2 7)))
 (let (($x3399 (= cell_4_2 6)))
 (let (($x3811 (= cell_4_2 5)))
 (let (($x3645 (= cell_4_2 4)))
 (let (($x5728 (= cell_4_2 3)))
 (let (($x8132 (= cell_4_2 2)))
 (let (($x9805 (= cell_4_2 1)))
 (or $x9805 $x8132 $x5728 $x3645 $x3811 $x3399 $x8291 $x8881 $x6344)))))))))))
(assert
 (let (($x8082 (= cell_5_2 9)))
 (let (($x6900 (= cell_5_2 8)))
 (let (($x3909 (= cell_5_2 7)))
 (let (($x3020 (= cell_5_2 6)))
 (let (($x10191 (= cell_5_2 5)))
 (let (($x3599 (= cell_5_2 4)))
 (let (($x6772 (= cell_5_2 3)))
 (let (($x10319 (= cell_5_2 2)))
 (let (($x3120 (= cell_5_2 1)))
 (or $x3120 $x10319 $x6772 $x3599 $x10191 $x3020 $x3909 $x6900 $x8082)))))))))))
(assert
 (let (($x5433 (= cell_6_2 9)))
 (let (($x1603 (= cell_6_2 8)))
 (let (($x7900 (= cell_6_2 7)))
 (let (($x1969 (= cell_6_2 6)))
 (let (($x6387 (= cell_6_2 5)))
 (let (($x5079 (= cell_6_2 4)))
 (let (($x8357 (= cell_6_2 3)))
 (let (($x3467 (= cell_6_2 2)))
 (let (($x4895 (= cell_6_2 1)))
 (or $x4895 $x3467 $x8357 $x5079 $x6387 $x1969 $x7900 $x1603 $x5433)))))))))))
(assert
 (let (($x6743 (= cell_7_2 1)))
 (or $x6743 (= cell_7_2 2) (= cell_7_2 3) (= cell_7_2 4) (= cell_7_2 5) (= cell_7_2 6) (= cell_7_2 7) (= cell_7_2 8) (= cell_7_2 9))))
(assert
 (let (($x1701 (= cell_8_2 9)))
 (let (($x3849 (= cell_8_2 8)))
 (let (($x3692 (= cell_8_2 7)))
 (let (($x3921 (= cell_8_2 6)))
 (let (($x8511 (= cell_8_2 5)))
 (let (($x5777 (= cell_8_2 4)))
 (let (($x4872 (= cell_8_2 3)))
 (let (($x8034 (= cell_8_2 2)))
 (let (($x9533 (= cell_8_2 1)))
 (or $x9533 $x8034 $x4872 $x5777 $x8511 $x3921 $x3692 $x3849 $x1701)))))))))))
(assert
 (let (($x1860 (= cell_9_2 9)))
 (let (($x2057 (= cell_9_2 8)))
 (let (($x7953 (= cell_9_2 7)))
 (let (($x8739 (= cell_9_2 6)))
 (let (($x9062 (= cell_9_2 5)))
 (let (($x60 (= cell_9_2 4)))
 (let (($x9265 (= cell_9_2 3)))
 (let (($x8672 (= cell_9_2 2)))
 (let (($x1422 (= cell_9_2 1)))
 (or $x1422 $x8672 $x9265 $x60 $x9062 $x8739 $x7953 $x2057 $x1860)))))))))))
(assert
 (let (($x3856 (= cell_1_3 1)))
 (or $x3856 (= cell_1_3 2) (= cell_1_3 3) (= cell_1_3 4) (= cell_1_3 5) (= cell_1_3 6) (= cell_1_3 7) (= cell_1_3 8) (= cell_1_3 9))))
(assert
 (let (($x4866 (= cell_2_3 9)))
 (let (($x5982 (= cell_2_3 8)))
 (let (($x5893 (= cell_2_3 7)))
 (let (($x8050 (= cell_2_3 6)))
 (let (($x787 (= cell_2_3 5)))
 (let (($x8325 (= cell_2_3 4)))
 (let (($x5911 (= cell_2_3 3)))
 (let (($x4474 (= cell_2_3 2)))
 (let (($x1581 (= cell_2_3 1)))
 (or $x1581 $x4474 $x5911 $x8325 $x787 $x8050 $x5893 $x5982 $x4866)))))))))))
(assert
 (let (($x7935 (= cell_3_3 9)))
 (let (($x136 (= cell_3_3 8)))
 (let (($x1815 (= cell_3_3 7)))
 (let (($x6009 (= cell_3_3 6)))
 (let (($x10069 (= cell_3_3 5)))
 (let (($x7699 (= cell_3_3 4)))
 (let (($x5693 (= cell_3_3 3)))
 (let (($x1837 (= cell_3_3 2)))
 (let (($x9746 (= cell_3_3 1)))
 (or $x9746 $x1837 $x5693 $x7699 $x10069 $x6009 $x1815 $x136 $x7935)))))))))))
(assert
 (let (($x3522 (= cell_4_3 1)))
 (or $x3522 (= cell_4_3 2) (= cell_4_3 3) (= cell_4_3 4) (= cell_4_3 5) (= cell_4_3 6) (= cell_4_3 7) (= cell_4_3 8) (= cell_4_3 9))))
(assert
 (let (($x6872 (= cell_5_3 9)))
 (let (($x2961 (= cell_5_3 8)))
 (let (($x7120 (= cell_5_3 7)))
 (let (($x3288 (= cell_5_3 6)))
 (let (($x6459 (= cell_5_3 5)))
 (let (($x240 (= cell_5_3 4)))
 (let (($x1726 (= cell_5_3 3)))
 (let (($x5193 (= cell_5_3 2)))
 (let (($x8940 (= cell_5_3 1)))
 (or $x8940 $x5193 $x1726 $x240 $x6459 $x3288 $x7120 $x2961 $x6872)))))))))))
(assert
 (let (($x10018 (= cell_6_3 9)))
 (let (($x6467 (= cell_6_3 8)))
 (let (($x5778 (= cell_6_3 7)))
 (let (($x7770 (= cell_6_3 6)))
 (let (($x3264 (= cell_6_3 5)))
 (let (($x8405 (= cell_6_3 4)))
 (let (($x624 (= cell_6_3 3)))
 (let (($x751 (= cell_6_3 2)))
 (let (($x5090 (= cell_6_3 1)))
 (or $x5090 $x751 $x624 $x8405 $x3264 $x7770 $x5778 $x6467 $x10018)))))))))))
(assert
 (let (($x7483 (= cell_7_3 1)))
 (or $x7483 (= cell_7_3 2) (= cell_7_3 3) (= cell_7_3 4) (= cell_7_3 5) (= cell_7_3 6) (= cell_7_3 7) (= cell_7_3 8) (= cell_7_3 9))))
(assert
 (let (($x2142 (= cell_8_3 9)))
 (let (($x3307 (= cell_8_3 8)))
 (let (($x2692 (= cell_8_3 7)))
 (let (($x2894 (= cell_8_3 6)))
 (let (($x9022 (= cell_8_3 5)))
 (let (($x1080 (= cell_8_3 4)))
 (let (($x3057 (= cell_8_3 3)))
 (let (($x8723 (= cell_8_3 2)))
 (let (($x4840 (= cell_8_3 1)))
 (or $x4840 $x8723 $x3057 $x1080 $x9022 $x2894 $x2692 $x3307 $x2142)))))))))))
(assert
 (let (($x2558 (= cell_9_3 9)))
 (let (($x5406 (= cell_9_3 8)))
 (let (($x9235 (= cell_9_3 7)))
 (let (($x1148 (= cell_9_3 6)))
 (let (($x3169 (= cell_9_3 5)))
 (let (($x7897 (= cell_9_3 4)))
 (let (($x2322 (= cell_9_3 3)))
 (let (($x4157 (= cell_9_3 2)))
 (let (($x3684 (= cell_9_3 1)))
 (or $x3684 $x4157 $x2322 $x7897 $x3169 $x1148 $x9235 $x5406 $x2558)))))))))))
(assert
 (let (($x5513 (= cell_1_4 9)))
 (let (($x2627 (= cell_1_4 8)))
 (let (($x1141 (= cell_1_4 7)))
 (let (($x497 (= cell_1_4 6)))
 (let (($x2724 (= cell_1_4 5)))
 (let (($x185 (= cell_1_4 4)))
 (let (($x297 (= cell_1_4 3)))
 (let (($x5926 (= cell_1_4 2)))
 (let (($x5959 (= cell_1_4 1)))
 (or $x5959 $x5926 $x297 $x185 $x2724 $x497 $x1141 $x2627 $x5513)))))))))))
(assert
 (let (($x430 (= cell_2_4 1)))
 (or $x430 (= cell_2_4 2) (= cell_2_4 3) (= cell_2_4 4) (= cell_2_4 5) (= cell_2_4 6) (= cell_2_4 7) (= cell_2_4 8) (= cell_2_4 9))))
(assert
 (let (($x6169 (= cell_3_4 9)))
 (let (($x7925 (= cell_3_4 8)))
 (let (($x8374 (= cell_3_4 7)))
 (let (($x3081 (= cell_3_4 6)))
 (let (($x10034 (= cell_3_4 5)))
 (let (($x6275 (= cell_3_4 4)))
 (let (($x165 (= cell_3_4 3)))
 (let (($x9881 (= cell_3_4 2)))
 (let (($x7360 (= cell_3_4 1)))
 (or $x7360 $x9881 $x165 $x6275 $x10034 $x3081 $x8374 $x7925 $x6169)))))))))))
(assert
 (let (($x337 (= cell_4_4 9)))
 (let (($x8750 (= cell_4_4 8)))
 (let (($x8165 (= cell_4_4 7)))
 (let (($x2243 (= cell_4_4 6)))
 (let (($x9832 (= cell_4_4 5)))
 (let (($x4339 (= cell_4_4 4)))
 (let (($x8503 (= cell_4_4 3)))
 (let (($x3215 (= cell_4_4 2)))
 (let (($x8752 (= cell_4_4 1)))
 (or $x8752 $x3215 $x8503 $x4339 $x9832 $x2243 $x8165 $x8750 $x337)))))))))))
(assert
 (let (($x6368 (= cell_5_4 9)))
 (let (($x571 (= cell_5_4 8)))
 (let (($x8412 (= cell_5_4 7)))
 (let (($x7867 (= cell_5_4 6)))
 (let (($x1266 (= cell_5_4 5)))
 (let (($x4915 (= cell_5_4 4)))
 (let (($x6181 (= cell_5_4 3)))
 (let (($x7258 (= cell_5_4 2)))
 (let (($x2070 (= cell_5_4 1)))
 (or $x2070 $x7258 $x6181 $x4915 $x1266 $x7867 $x8412 $x571 $x6368)))))))))))
(assert
 (let (($x2782 (= cell_6_4 9)))
 (let (($x4992 (= cell_6_4 8)))
 (let (($x8597 (= cell_6_4 7)))
 (let (($x4270 (= cell_6_4 6)))
 (let (($x8470 (= cell_6_4 5)))
 (let (($x4459 (= cell_6_4 4)))
 (let (($x8941 (= cell_6_4 3)))
 (let (($x7305 (= cell_6_4 2)))
 (let (($x1881 (= cell_6_4 1)))
 (or $x1881 $x7305 $x8941 $x4459 $x8470 $x4270 $x8597 $x4992 $x2782)))))))))))
(assert
 (let (($x2438 (= cell_7_4 9)))
 (let (($x7655 (= cell_7_4 8)))
 (let (($x6992 (= cell_7_4 7)))
 (let (($x235 (= cell_7_4 6)))
 (let (($x657 (= cell_7_4 5)))
 (let (($x4043 (= cell_7_4 4)))
 (let (($x1438 (= cell_7_4 3)))
 (let (($x5126 (= cell_7_4 2)))
 (let (($x5596 (= cell_7_4 1)))
 (or $x5596 $x5126 $x1438 $x4043 $x657 $x235 $x6992 $x7655 $x2438)))))))))))
(assert
 (let (($x6150 (= cell_8_4 9)))
 (let (($x920 (= cell_8_4 8)))
 (let (($x2161 (= cell_8_4 7)))
 (let (($x573 (= cell_8_4 6)))
 (let (($x815 (= cell_8_4 5)))
 (let (($x9606 (= cell_8_4 4)))
 (let (($x4860 (= cell_8_4 3)))
 (let (($x5614 (= cell_8_4 2)))
 (let (($x5649 (= cell_8_4 1)))
 (or $x5649 $x5614 $x4860 $x9606 $x815 $x573 $x2161 $x920 $x6150)))))))))))
(assert
 (let (($x8120 (= cell_9_4 9)))
 (let (($x8395 (= cell_9_4 8)))
 (let (($x2511 (= cell_9_4 7)))
 (let (($x3889 (= cell_9_4 6)))
 (let (($x4900 (= cell_9_4 5)))
 (let (($x9622 (= cell_9_4 4)))
 (let (($x1883 (= cell_9_4 3)))
 (let (($x5469 (= cell_9_4 2)))
 (let (($x5492 (= cell_9_4 1)))
 (or $x5492 $x5469 $x1883 $x9622 $x4900 $x3889 $x2511 $x8395 $x8120)))))))))))
(assert
 (let (($x9781 (= cell_1_5 9)))
 (let (($x7838 (= cell_1_5 8)))
 (let (($x1921 (= cell_1_5 7)))
 (let (($x494 (= cell_1_5 6)))
 (let (($x223 (= cell_1_5 5)))
 (let (($x3428 (= cell_1_5 4)))
 (let (($x2519 (= cell_1_5 3)))
 (let (($x9587 (= cell_1_5 2)))
 (let (($x10014 (= cell_1_5 1)))
 (or $x10014 $x9587 $x2519 $x3428 $x223 $x494 $x1921 $x7838 $x9781)))))))))))
(assert
 (let (($x827 (= cell_2_5 9)))
 (let (($x8493 (= cell_2_5 8)))
 (let (($x9338 (= cell_2_5 7)))
 (let (($x7533 (= cell_2_5 6)))
 (let (($x2473 (= cell_2_5 5)))
 (let (($x9616 (= cell_2_5 4)))
 (let (($x4026 (= cell_2_5 3)))
 (let (($x5440 (= cell_2_5 2)))
 (let (($x2604 (= cell_2_5 1)))
 (or $x2604 $x5440 $x4026 $x9616 $x2473 $x7533 $x9338 $x8493 $x827)))))))))))
(assert
 (let (($x4614 (= cell_3_5 9)))
 (let (($x7665 (= cell_3_5 8)))
 (let (($x2312 (= cell_3_5 7)))
 (let (($x5385 (= cell_3_5 6)))
 (let (($x2083 (= cell_3_5 5)))
 (let (($x318 (= cell_3_5 4)))
 (let (($x6793 (= cell_3_5 3)))
 (let (($x9761 (= cell_3_5 2)))
 (let (($x2045 (= cell_3_5 1)))
 (or $x2045 $x9761 $x6793 $x318 $x2083 $x5385 $x2312 $x7665 $x4614)))))))))))
(assert
 (let (($x5912 (= cell_4_5 9)))
 (let (($x1626 (= cell_4_5 8)))
 (let (($x8957 (= cell_4_5 7)))
 (let (($x2242 (= cell_4_5 6)))
 (let (($x4232 (= cell_4_5 5)))
 (let (($x5217 (= cell_4_5 4)))
 (let (($x1844 (= cell_4_5 3)))
 (let (($x8708 (= cell_4_5 2)))
 (let (($x1023 (= cell_4_5 1)))
 (or $x1023 $x8708 $x1844 $x5217 $x4232 $x2242 $x8957 $x1626 $x5912)))))))))))
(assert
 (let (($x6243 (= cell_5_5 9)))
 (let (($x7865 (= cell_5_5 8)))
 (let (($x8081 (= cell_5_5 7)))
 (let (($x7318 (= cell_5_5 6)))
 (let (($x2524 (= cell_5_5 5)))
 (let (($x306 (= cell_5_5 4)))
 (let (($x354 (= cell_5_5 3)))
 (let (($x5730 (= cell_5_5 2)))
 (let (($x2620 (= cell_5_5 1)))
 (or $x2620 $x5730 $x354 $x306 $x2524 $x7318 $x8081 $x7865 $x6243)))))))))))
(assert
 (let (($x4220 (= cell_6_5 9)))
 (let (($x5575 (= cell_6_5 8)))
 (let (($x6548 (= cell_6_5 7)))
 (let (($x5726 (= cell_6_5 6)))
 (let (($x9459 (= cell_6_5 5)))
 (let (($x2282 (= cell_6_5 4)))
 (let (($x9531 (= cell_6_5 3)))
 (let (($x2869 (= cell_6_5 2)))
 (let (($x6130 (= cell_6_5 1)))
 (or $x6130 $x2869 $x9531 $x2282 $x9459 $x5726 $x6548 $x5575 $x4220)))))))))))
(assert
 (let (($x4169 (= cell_7_5 9)))
 (let (($x2270 (= cell_7_5 8)))
 (let (($x4832 (= cell_7_5 7)))
 (let (($x4495 (= cell_7_5 6)))
 (let (($x4110 (= cell_7_5 5)))
 (let (($x6091 (= cell_7_5 4)))
 (let (($x7757 (= cell_7_5 3)))
 (let (($x9300 (= cell_7_5 2)))
 (let (($x10178 (= cell_7_5 1)))
 (or $x10178 $x9300 $x7757 $x6091 $x4110 $x4495 $x4832 $x2270 $x4169)))))))))))
(assert
 (let (($x3887 (= cell_8_5 1)))
 (or $x3887 (= cell_8_5 2) (= cell_8_5 3) (= cell_8_5 4) (= cell_8_5 5) (= cell_8_5 6) (= cell_8_5 7) (= cell_8_5 8) (= cell_8_5 9))))
(assert
 (let (($x8622 (= cell_9_5 9)))
 (let (($x6759 (= cell_9_5 8)))
 (let (($x6547 (= cell_9_5 7)))
 (let (($x8227 (= cell_9_5 6)))
 (let (($x4822 (= cell_9_5 5)))
 (let (($x6843 (= cell_9_5 4)))
 (let (($x5229 (= cell_9_5 3)))
 (let (($x8749 (= cell_9_5 2)))
 (let (($x6012 (= cell_9_5 1)))
 (or $x6012 $x8749 $x5229 $x6843 $x4822 $x8227 $x6547 $x6759 $x8622)))))))))))
(assert
 (let (($x269 (= cell_1_6 9)))
 (let (($x7810 (= cell_1_6 8)))
 (let (($x6333 (= cell_1_6 7)))
 (let (($x5414 (= cell_1_6 6)))
 (let (($x7569 (= cell_1_6 5)))
 (let (($x5502 (= cell_1_6 4)))
 (let (($x9397 (= cell_1_6 3)))
 (let (($x8985 (= cell_1_6 2)))
 (let (($x646 (= cell_1_6 1)))
 (or $x646 $x8985 $x9397 $x5502 $x7569 $x5414 $x6333 $x7810 $x269)))))))))))
(assert
 (let (($x2799 (= cell_2_6 9)))
 (let (($x1043 (= cell_2_6 8)))
 (let (($x10102 (= cell_2_6 7)))
 (let (($x6276 (= cell_2_6 6)))
 (let (($x4762 (= cell_2_6 5)))
 (let (($x9756 (= cell_2_6 4)))
 (let (($x2153 (= cell_2_6 3)))
 (let (($x3905 (= cell_2_6 2)))
 (let (($x711 (= cell_2_6 1)))
 (or $x711 $x3905 $x2153 $x9756 $x4762 $x6276 $x10102 $x1043 $x2799)))))))))))
(assert
 (let (($x5779 (= cell_3_6 9)))
 (let (($x8065 (= cell_3_6 8)))
 (let (($x8189 (= cell_3_6 7)))
 (let (($x9126 (= cell_3_6 6)))
 (let (($x6351 (= cell_3_6 5)))
 (let (($x192 (= cell_3_6 4)))
 (let (($x1674 (= cell_3_6 3)))
 (let (($x6855 (= cell_3_6 2)))
 (let (($x68 (= cell_3_6 1)))
 (or $x68 $x6855 $x1674 $x192 $x6351 $x9126 $x8189 $x8065 $x5779)))))))))))
(assert
 (let (($x4415 (= cell_4_6 9)))
 (let (($x4429 (= cell_4_6 8)))
 (let (($x2709 (= cell_4_6 7)))
 (let (($x410 (= cell_4_6 6)))
 (let (($x1681 (= cell_4_6 5)))
 (let (($x2710 (= cell_4_6 4)))
 (let (($x4361 (= cell_4_6 3)))
 (let (($x5208 (= cell_4_6 2)))
 (let (($x9589 (= cell_4_6 1)))
 (or $x9589 $x5208 $x4361 $x2710 $x1681 $x410 $x2709 $x4429 $x4415)))))))))))
(assert
 (let (($x1891 (= cell_5_6 9)))
 (let (($x2177 (= cell_5_6 8)))
 (let (($x365 (= cell_5_6 7)))
 (let (($x6227 (= cell_5_6 6)))
 (let (($x2640 (= cell_5_6 5)))
 (let (($x10119 (= cell_5_6 4)))
 (let (($x1401 (= cell_5_6 3)))
 (let (($x3959 (= cell_5_6 2)))
 (let (($x2774 (= cell_5_6 1)))
 (or $x2774 $x3959 $x1401 $x10119 $x2640 $x6227 $x365 $x2177 $x1891)))))))))))
(assert
 (let (($x7173 (= cell_6_6 1)))
 (or $x7173 (= cell_6_6 2) (= cell_6_6 3) (= cell_6_6 4) (= cell_6_6 5) (= cell_6_6 6) (= cell_6_6 7) (= cell_6_6 8) (= cell_6_6 9))))
(assert
 (let (($x5428 (= cell_7_6 9)))
 (let (($x2159 (= cell_7_6 8)))
 (let (($x9395 (= cell_7_6 7)))
 (let (($x9962 (= cell_7_6 6)))
 (let (($x1223 (= cell_7_6 5)))
 (let (($x348 (= cell_7_6 4)))
 (let (($x5939 (= cell_7_6 3)))
 (let (($x5106 (= cell_7_6 2)))
 (let (($x2601 (= cell_7_6 1)))
 (or $x2601 $x5106 $x5939 $x348 $x1223 $x9962 $x9395 $x2159 $x5428)))))))))))
(assert
 (let (($x7710 (= cell_8_6 1)))
 (or $x7710 (= cell_8_6 2) (= cell_8_6 3) (= cell_8_6 4) (= cell_8_6 5) (= cell_8_6 6) (= cell_8_6 7) (= cell_8_6 8) (= cell_8_6 9))))
(assert
 (let (($x3219 (= cell_9_6 9)))
 (let (($x9094 (= cell_9_6 8)))
 (let (($x4678 (= cell_9_6 7)))
 (let (($x5890 (= cell_9_6 6)))
 (let (($x5218 (= cell_9_6 5)))
 (let (($x4460 (= cell_9_6 4)))
 (let (($x6546 (= cell_9_6 3)))
 (let (($x868 (= cell_9_6 2)))
 (let (($x7056 (= cell_9_6 1)))
 (or $x7056 $x868 $x6546 $x4460 $x5218 $x5890 $x4678 $x9094 $x3219)))))))))))
(assert
 (let (($x7933 (= cell_1_7 9)))
 (let (($x4069 (= cell_1_7 8)))
 (let (($x6650 (= cell_1_7 7)))
 (let (($x40 (= cell_1_7 6)))
 (let (($x8036 (= cell_1_7 5)))
 (let (($x1247 (= cell_1_7 4)))
 (let (($x9804 (= cell_1_7 3)))
 (let (($x9675 (= cell_1_7 2)))
 (let (($x7479 (= cell_1_7 1)))
 (or $x7479 $x9675 $x9804 $x1247 $x8036 $x40 $x6650 $x4069 $x7933)))))))))))
(assert
 (let (($x2649 (= cell_2_7 9)))
 (let (($x9789 (= cell_2_7 8)))
 (let (($x10008 (= cell_2_7 7)))
 (let (($x5083 (= cell_2_7 6)))
 (let (($x347 (= cell_2_7 5)))
 (let (($x8863 (= cell_2_7 4)))
 (let (($x2156 (= cell_2_7 3)))
 (let (($x2736 (= cell_2_7 2)))
 (let (($x187 (= cell_2_7 1)))
 (or $x187 $x2736 $x2156 $x8863 $x347 $x5083 $x10008 $x9789 $x2649)))))))))))
(assert
 (let (($x10030 (= cell_3_7 9)))
 (let (($x6076 (= cell_3_7 8)))
 (let (($x4624 (= cell_3_7 7)))
 (let (($x5068 (= cell_3_7 6)))
 (let (($x391 (= cell_3_7 5)))
 (let (($x2492 (= cell_3_7 4)))
 (let (($x8424 (= cell_3_7 3)))
 (let (($x6416 (= cell_3_7 2)))
 (let (($x1277 (= cell_3_7 1)))
 (or $x1277 $x6416 $x8424 $x2492 $x391 $x5068 $x4624 $x6076 $x10030)))))))))))
(assert
 (let (($x1535 (= cell_4_7 9)))
 (let (($x8136 (= cell_4_7 8)))
 (let (($x7286 (= cell_4_7 7)))
 (let (($x770 (= cell_4_7 6)))
 (let (($x9310 (= cell_4_7 5)))
 (let (($x2645 (= cell_4_7 4)))
 (let (($x3866 (= cell_4_7 3)))
 (let (($x4896 (= cell_4_7 2)))
 (let (($x3080 (= cell_4_7 1)))
 (or $x3080 $x4896 $x3866 $x2645 $x9310 $x770 $x7286 $x8136 $x1535)))))))))))
(assert
 (let (($x4481 (= cell_5_7 9)))
 (let (($x3612 (= cell_5_7 8)))
 (let (($x8834 (= cell_5_7 7)))
 (let (($x4406 (= cell_5_7 6)))
 (let (($x609 (= cell_5_7 5)))
 (let (($x5422 (= cell_5_7 4)))
 (let (($x2665 (= cell_5_7 3)))
 (let (($x9515 (= cell_5_7 2)))
 (let (($x7279 (= cell_5_7 1)))
 (or $x7279 $x9515 $x2665 $x5422 $x609 $x4406 $x8834 $x3612 $x4481)))))))))))
(assert
 (let (($x7697 (= cell_6_7 9)))
 (let (($x1462 (= cell_6_7 8)))
 (let (($x8575 (= cell_6_7 7)))
 (let (($x5283 (= cell_6_7 6)))
 (let (($x1789 (= cell_6_7 5)))
 (let (($x3391 (= cell_6_7 4)))
 (let (($x244 (= cell_6_7 3)))
 (let (($x8671 (= cell_6_7 2)))
 (let (($x9154 (= cell_6_7 1)))
 (or $x9154 $x8671 $x244 $x3391 $x1789 $x5283 $x8575 $x1462 $x7697)))))))))))
(assert
 (let (($x7835 (= cell_7_7 9)))
 (let (($x9481 (= cell_7_7 8)))
 (let (($x3480 (= cell_7_7 7)))
 (let (($x2212 (= cell_7_7 6)))
 (let (($x6753 (= cell_7_7 5)))
 (let (($x2000 (= cell_7_7 4)))
 (let (($x328 (= cell_7_7 3)))
 (let (($x7970 (= cell_7_7 2)))
 (let (($x9985 (= cell_7_7 1)))
 (or $x9985 $x7970 $x328 $x2000 $x6753 $x2212 $x3480 $x9481 $x7835)))))))))))
(assert
 (let (($x184 (= cell_8_7 9)))
 (let (($x6819 (= cell_8_7 8)))
 (let (($x9462 (= cell_8_7 7)))
 (let (($x9287 (= cell_8_7 6)))
 (let (($x7189 (= cell_8_7 5)))
 (let (($x8277 (= cell_8_7 4)))
 (let (($x5108 (= cell_8_7 3)))
 (let (($x2308 (= cell_8_7 2)))
 (let (($x844 (= cell_8_7 1)))
 (or $x844 $x2308 $x5108 $x8277 $x7189 $x9287 $x9462 $x6819 $x184)))))))))))
(assert
 (let (($x956 (= cell_9_7 1)))
 (or $x956 (= cell_9_7 2) (= cell_9_7 3) (= cell_9_7 4) (= cell_9_7 5) (= cell_9_7 6) (= cell_9_7 7) (= cell_9_7 8) (= cell_9_7 9))))
(assert
 (let (($x7682 (= cell_1_8 9)))
 (let (($x8384 (= cell_1_8 8)))
 (let (($x8540 (= cell_1_8 7)))
 (let (($x1639 (= cell_1_8 6)))
 (let (($x212 (= cell_1_8 5)))
 (let (($x1254 (= cell_1_8 4)))
 (let (($x8549 (= cell_1_8 3)))
 (let (($x3754 (= cell_1_8 2)))
 (let (($x5423 (= cell_1_8 1)))
 (or $x5423 $x3754 $x8549 $x1254 $x212 $x1639 $x8540 $x8384 $x7682)))))))))))
(assert
 (let (($x7775 (= cell_2_8 9)))
 (let (($x1098 (= cell_2_8 8)))
 (let (($x6998 (= cell_2_8 7)))
 (let (($x4991 (= cell_2_8 6)))
 (let (($x7798 (= cell_2_8 5)))
 (let (($x5362 (= cell_2_8 4)))
 (let (($x2886 (= cell_2_8 3)))
 (let (($x2439 (= cell_2_8 2)))
 (let (($x4929 (= cell_2_8 1)))
 (or $x4929 $x2439 $x2886 $x5362 $x7798 $x4991 $x6998 $x1098 $x7775)))))))))))
(assert
 (let (($x3460 (= cell_3_8 1)))
 (or $x3460 (= cell_3_8 2) (= cell_3_8 3) (= cell_3_8 4) (= cell_3_8 5) (= cell_3_8 6) (= cell_3_8 7) (= cell_3_8 8) (= cell_3_8 9))))
(assert
 (let (($x5665 (= cell_4_8 9)))
 (let (($x8359 (= cell_4_8 8)))
 (let (($x2432 (= cell_4_8 7)))
 (let (($x7558 (= cell_4_8 6)))
 (let (($x6912 (= cell_4_8 5)))
 (let (($x10050 (= cell_4_8 4)))
 (let (($x6534 (= cell_4_8 3)))
 (let (($x3527 (= cell_4_8 2)))
 (let (($x5402 (= cell_4_8 1)))
 (or $x5402 $x3527 $x6534 $x10050 $x6912 $x7558 $x2432 $x8359 $x5665)))))))))))
(assert
 (let (($x8302 (= cell_5_8 9)))
 (let (($x5995 (= cell_5_8 8)))
 (let (($x2192 (= cell_5_8 7)))
 (let (($x6971 (= cell_5_8 6)))
 (let (($x1533 (= cell_5_8 5)))
 (let (($x5855 (= cell_5_8 4)))
 (let (($x4987 (= cell_5_8 3)))
 (let (($x9899 (= cell_5_8 2)))
 (let (($x9696 (= cell_5_8 1)))
 (or $x9696 $x9899 $x4987 $x5855 $x1533 $x6971 $x2192 $x5995 $x8302)))))))))))
(assert
 (let (($x7821 (= cell_6_8 1)))
 (or $x7821 (= cell_6_8 2) (= cell_6_8 3) (= cell_6_8 4) (= cell_6_8 5) (= cell_6_8 6) (= cell_6_8 7) (= cell_6_8 8) (= cell_6_8 9))))
(assert
 (let (($x6289 (= cell_7_8 9)))
 (let (($x4950 (= cell_7_8 8)))
 (let (($x9812 (= cell_7_8 7)))
 (let (($x2933 (= cell_7_8 6)))
 (let (($x4431 (= cell_7_8 5)))
 (let (($x6151 (= cell_7_8 4)))
 (let (($x3807 (= cell_7_8 3)))
 (let (($x3299 (= cell_7_8 2)))
 (let (($x206 (= cell_7_8 1)))
 (or $x206 $x3299 $x3807 $x6151 $x4431 $x2933 $x9812 $x4950 $x6289)))))))))))
(assert
 (let (($x9248 (= cell_8_8 9)))
 (let (($x5507 (= cell_8_8 8)))
 (let (($x6315 (= cell_8_8 7)))
 (let (($x3013 (= cell_8_8 6)))
 (let (($x5098 (= cell_8_8 5)))
 (let (($x1038 (= cell_8_8 4)))
 (let (($x1072 (= cell_8_8 3)))
 (let (($x622 (= cell_8_8 2)))
 (let (($x7449 (= cell_8_8 1)))
 (or $x7449 $x622 $x1072 $x1038 $x5098 $x3013 $x6315 $x5507 $x9248)))))))))))
(assert
 (let (($x3463 (= cell_9_8 1)))
 (or $x3463 (= cell_9_8 2) (= cell_9_8 3) (= cell_9_8 4) (= cell_9_8 5) (= cell_9_8 6) (= cell_9_8 7) (= cell_9_8 8) (= cell_9_8 9))))
(assert
 (let (($x7881 (= cell_1_9 9)))
 (let (($x3231 (= cell_1_9 8)))
 (let (($x1628 (= cell_1_9 7)))
 (let (($x4290 (= cell_1_9 6)))
 (let (($x9679 (= cell_1_9 5)))
 (let (($x3186 (= cell_1_9 4)))
 (let (($x5413 (= cell_1_9 3)))
 (let (($x6627 (= cell_1_9 2)))
 (let (($x1873 (= cell_1_9 1)))
 (or $x1873 $x6627 $x5413 $x3186 $x9679 $x4290 $x1628 $x3231 $x7881)))))))))))
(assert
 (let (($x1767 (= cell_2_9 9)))
 (let (($x7761 (= cell_2_9 8)))
 (let (($x6176 (= cell_2_9 7)))
 (let (($x9175 (= cell_2_9 6)))
 (let (($x4299 (= cell_2_9 5)))
 (let (($x2928 (= cell_2_9 4)))
 (let (($x1647 (= cell_2_9 3)))
 (let (($x4093 (= cell_2_9 2)))
 (let (($x3383 (= cell_2_9 1)))
 (or $x3383 $x4093 $x1647 $x2928 $x4299 $x9175 $x6176 $x7761 $x1767)))))))))))
(assert
 (let (($x4311 (= cell_3_9 9)))
 (let (($x3822 (= cell_3_9 8)))
 (let (($x800 (= cell_3_9 7)))
 (let (($x5849 (= cell_3_9 6)))
 (let (($x159 (= cell_3_9 5)))
 (let (($x84 (= cell_3_9 4)))
 (let (($x6672 (= cell_3_9 3)))
 (let (($x9594 (= cell_3_9 2)))
 (let (($x9776 (= cell_3_9 1)))
 (or $x9776 $x9594 $x6672 $x84 $x159 $x5849 $x800 $x3822 $x4311)))))))))))
(assert
 (let (($x3544 (= cell_4_9 9)))
 (let (($x5202 (= cell_4_9 8)))
 (let (($x7981 (= cell_4_9 7)))
 (let (($x4456 (= cell_4_9 6)))
 (let (($x5376 (= cell_4_9 5)))
 (let (($x8992 (= cell_4_9 4)))
 (let (($x6956 (= cell_4_9 3)))
 (let (($x4539 (= cell_4_9 2)))
 (let (($x2077 (= cell_4_9 1)))
 (or $x2077 $x4539 $x6956 $x8992 $x5376 $x4456 $x7981 $x5202 $x3544)))))))))))
(assert
 (let (($x5977 (= cell_5_9 1)))
 (or $x5977 (= cell_5_9 2) (= cell_5_9 3) (= cell_5_9 4) (= cell_5_9 5) (= cell_5_9 6) (= cell_5_9 7) (= cell_5_9 8) (= cell_5_9 9))))
(assert
 (let (($x1835 (= cell_6_9 1)))
 (or $x1835 (= cell_6_9 2) (= cell_6_9 3) (= cell_6_9 4) (= cell_6_9 5) (= cell_6_9 6) (= cell_6_9 7) (= cell_6_9 8) (= cell_6_9 9))))
(assert
 (let (($x4498 (= cell_7_9 9)))
 (let (($x9113 (= cell_7_9 8)))
 (let (($x4870 (= cell_7_9 7)))
 (let (($x5669 (= cell_7_9 6)))
 (let (($x7334 (= cell_7_9 5)))
 (let (($x6877 (= cell_7_9 4)))
 (let (($x2344 (= cell_7_9 3)))
 (let (($x4682 (= cell_7_9 2)))
 (let (($x7708 (= cell_7_9 1)))
 (or $x7708 $x4682 $x2344 $x6877 $x7334 $x5669 $x4870 $x9113 $x4498)))))))))))
(assert
 (let (($x4359 (= cell_8_9 9)))
 (let (($x5808 (= cell_8_9 8)))
 (let (($x4382 (= cell_8_9 7)))
 (let (($x9303 (= cell_8_9 6)))
 (let (($x4366 (= cell_8_9 5)))
 (let (($x8431 (= cell_8_9 4)))
 (let (($x8550 (= cell_8_9 3)))
 (let (($x8577 (= cell_8_9 2)))
 (let (($x8456 (= cell_8_9 1)))
 (or $x8456 $x8577 $x8550 $x8431 $x4366 $x9303 $x4382 $x5808 $x4359)))))))))))
(assert
 (let (($x3306 (= cell_9_9 1)))
 (or $x3306 (= cell_9_9 2) (= cell_9_9 3) (= cell_9_9 4) (= cell_9_9 5) (= cell_9_9 6) (= cell_9_9 7) (= cell_9_9 8) (= cell_9_9 9))))
(assert
 (and (distinct cell_1_1 cell_1_2 cell_1_3 cell_1_4 cell_1_5 cell_1_6 cell_1_7 cell_1_8 cell_1_9) true))
(assert
 (and (distinct cell_2_1 cell_2_2 cell_2_3 cell_2_4 cell_2_5 cell_2_6 cell_2_7 cell_2_8 cell_2_9) true))
(assert
 (and (distinct cell_3_1 cell_3_2 cell_3_3 cell_3_4 cell_3_5 cell_3_6 cell_3_7 cell_3_8 cell_3_9) true))
(assert
 (and (distinct cell_4_1 cell_4_2 cell_4_3 cell_4_4 cell_4_5 cell_4_6 cell_4_7 cell_4_8 cell_4_9) true))
(assert
 (and (distinct cell_5_1 cell_5_2 cell_5_3 cell_5_4 cell_5_5 cell_5_6 cell_5_7 cell_5_8 cell_5_9) true))
(assert
 (and (distinct cell_6_1 cell_6_2 cell_6_3 cell_6_4 cell_6_5 cell_6_6 cell_6_7 cell_6_8 cell_6_9) true))
(assert
 (and (distinct cell_7_1 cell_7_2 cell_7_3 cell_7_4 cell_7_5 cell_7_6 cell_7_7 cell_7_8 cell_7_9) true))
(assert
 (and (distinct cell_8_1 cell_8_2 cell_8_3 cell_8_4 cell_8_5 cell_8_6 cell_8_7 cell_8_8 cell_8_9) true))
(assert
 (and (distinct cell_9_1 cell_9_2 cell_9_3 cell_9_4 cell_9_5 cell_9_6 cell_9_7 cell_9_8 cell_9_9) true))
(assert
 (and (distinct cell_1_1 cell_2_1 cell_3_1 cell_4_1 cell_5_1 cell_6_1 cell_7_1 cell_8_1 cell_9_1) true))
(assert
 (and (distinct cell_1_2 cell_2_2 cell_3_2 cell_4_2 cell_5_2 cell_6_2 cell_7_2 cell_8_2 cell_9_2) true))
(assert
 (and (distinct cell_1_3 cell_2_3 cell_3_3 cell_4_3 cell_5_3 cell_6_3 cell_7_3 cell_8_3 cell_9_3) true))
(assert
 (and (distinct cell_1_4 cell_2_4 cell_3_4 cell_4_4 cell_5_4 cell_6_4 cell_7_4 cell_8_4 cell_9_4) true))
(assert
 (and (distinct cell_1_5 cell_2_5 cell_3_5 cell_4_5 cell_5_5 cell_6_5 cell_7_5 cell_8_5 cell_9_5) true))
(assert
 (and (distinct cell_1_6 cell_2_6 cell_3_6 cell_4_6 cell_5_6 cell_6_6 cell_7_6 cell_8_6 cell_9_6) true))
(assert
 (and (distinct cell_1_7 cell_2_7 cell_3_7 cell_4_7 cell_5_7 cell_6_7 cell_7_7 cell_8_7 cell_9_7) true))
(assert
 (and (distinct cell_1_8 cell_2_8 cell_3_8 cell_4_8 cell_5_8 cell_6_8 cell_7_8 cell_8_8 cell_9_8) true))
(assert
 (and (distinct cell_1_9 cell_2_9 cell_3_9 cell_4_9 cell_5_9 cell_6_9 cell_7_9 cell_8_9 cell_9_9) true))
(assert
 (and (distinct cell_1_1 cell_1_2 cell_1_3 cell_2_1 cell_2_2 cell_2_3 cell_3_1 cell_3_2 cell_3_3) true))
(assert
 (and (distinct cell_1_4 cell_1_5 cell_1_6 cell_2_4 cell_2_5 cell_2_6 cell_3_4 cell_3_5 cell_3_6) true))
(assert
 (and (distinct cell_1_7 cell_1_8 cell_1_9 cell_2_7 cell_2_8 cell_2_9 cell_3_7 cell_3_8 cell_3_9) true))
(assert
 (and (distinct cell_4_1 cell_4_2 cell_4_3 cell_5_1 cell_5_2 cell_5_3 cell_6_1 cell_6_2 cell_6_3) true))
(assert
 (and (distinct cell_4_4 cell_4_5 cell_4_6 cell_5_4 cell_5_5 cell_5_6 cell_6_4 cell_6_5 cell_6_6) true))
(assert
 (and (distinct cell_4_7 cell_4_8 cell_4_9 cell_5_7 cell_5_8 cell_5_9 cell_6_7 cell_6_8 cell_6_9) true))
(assert
 (and (distinct cell_7_1 cell_7_2 cell_7_3 cell_8_1 cell_8_2 cell_8_3 cell_9_1 cell_9_2 cell_9_3) true))
(assert
 (and (distinct cell_7_4 cell_7_5 cell_7_6 cell_8_4 cell_8_5 cell_8_6 cell_9_4 cell_9_5 cell_9_6) true))
(assert
 (and (distinct cell_7_7 cell_7_8 cell_7_9 cell_8_7 cell_8_8 cell_8_9 cell_9_7 cell_9_8 cell_9_9) true))
(assert
 (let (($x5553 (and (distinct cell_5_9 cell_6_8 cell_7_7 cell_8_6) true)))
 (let (($x312 (and (distinct cell_2_9 cell_3_8 cell_4_7 cell_5_6 cell_6_5 cell_7_4 cell_8_3 cell_9_2) true)))
 (let (($x1889 (and (distinct cell_1_8 cell_2_7 cell_3_6 cell_4_5 cell_5_4 cell_6_3 cell_7_2 cell_8_1) true)))
 (let (($x7053 (and (distinct cell_1_5 cell_2_4 cell_3_3 cell_4_2) true)))
 (let (($x5836 (and (distinct cell_5_1 cell_6_2 cell_7_3 cell_8_4) true)))
 (let (($x10170 (and (distinct cell_2_1 cell_3_2 cell_4_3 cell_5_4 cell_6_5 cell_7_6 cell_8_7 cell_9_8) true)))
 (let (($x5485 (and (distinct cell_1_2 cell_2_3 cell_3_4 cell_4_5 cell_5_6 cell_6_7 cell_7_8 cell_8_9) true)))
 (let (($x5181 (and (distinct cell_1_5 cell_2_6 cell_3_7 cell_4_8) true)))
 (and $x5181 $x5485 $x10170 $x5836 $x7053 $x1889 $x312 $x5553))))))))))
(assert
 (= cell_2_9 2))
(check-sat)
